0 4 0
2 28 8
4 9 1
5 6 4
6 23 5
8 26 10
9 16 2
16 5 3
23 27 6
26 0 11
27 2 7
28 8 9
next
0 30 13 0
0 34 19 10
0 60 18 3
0 73 29 4
0 77 3 10
0 94 30 9
0 95 17 9
0 95 22 10
0 105 12 8
1 10 14 2
1 26 7 1
1 34 24 10
1 37 10 0
1 47 1 4
1 60 21 3
1 85 20 6
1 88 25 6
1 100 15 6
1 105 11 8
